### Hier sind die Ergebnisse der Optimierung von Max-Flow-Problem mit Gurobi Solver######



Gurobi 11.0.2 (win64) logging started Tue Jun 11 15:29:40 2024

Set parameter LogFile to value "mf_gurobi.log"
Set parameter DisplayInterval to value 1
Set parameter FeasibilityTol to value 1e-09
Set parameter OptimalityTol to value 1e-09
Gurobi Optimizer version 11.0.2 build v11.0.2rc0 (win64 - Windows 11.0 (22631.2))

CPU model: 11th Gen Intel(R) Core(TM) i5-11300H @ 3.10GHz, instruction set [SSE2|AVX|AVX2|AVX512]
Thread count: 4 physical cores, 8 logical processors, using up to 8 threads

Optimize a model with 258 rows, 2080 columns and 4128 nonzeros
Model fingerprint: 0x254f9617
Coefficient statistics:
  Matrix range     [1e+00, 1e+00]
  Objective range  [1e+00, 1e+00]
  Bounds range     [1e+00, 3e+03]
  RHS range        [0e+00, 0e+00]
Presolve removed 2 rows and 16 columns
Presolve time: 0.01s
Presolved: 256 rows, 2064 columns, 4112 nonzeros

Iteration    Objective       Primal Inf.    Dual Inf.      Time
       0    1.6000000e+04   2.283700e+04   0.000000e+00      0s
     434    1.6000000e+04   0.000000e+00   0.000000e+00      0s

Solved in 434 iterations and 0.48 seconds (0.01 work units)
Optimal objective  1.600000000e+04

User-callback calls 465, time in user-callback 0.42 sec

Gurobi 11.0.2 (win64) logging started Tue Jun 11 21:41:25 2024

Set parameter LogFile to value "mf_gurobi.log"
Set parameter DisplayInterval to value 1
Set parameter FeasibilityTol to value 1e-09
Set parameter OptimalityTol to value 1e-09
Gurobi Optimizer version 11.0.2 build v11.0.2rc0 (win64 - Windows 11.0 (22631.2))

CPU model: 11th Gen Intel(R) Core(TM) i5-11300H @ 3.10GHz, instruction set [SSE2|AVX|AVX2|AVX512]
Thread count: 4 physical cores, 8 logical processors, using up to 8 threads

Optimize a model with 258 rows, 2080 columns and 4128 nonzeros
Model fingerprint: 0x254f9617
Coefficient statistics:
  Matrix range     [1e+00, 1e+00]
  Objective range  [1e+00, 1e+00]
  Bounds range     [1e+00, 3e+03]
  RHS range        [0e+00, 0e+00]
Presolve removed 2 rows and 16 columns
Presolve time: 0.00s
Presolved: 256 rows, 2064 columns, 4112 nonzeros

Iteration    Objective       Primal Inf.    Dual Inf.      Time
       0    1.6000000e+04   2.283700e+04   0.000000e+00      0s
     434    1.6000000e+04   0.000000e+00   0.000000e+00      0s

Solved in 434 iterations and 0.27 seconds (0.01 work units)
Optimal objective  1.600000000e+04

User-callback calls 465, time in user-callback 0.23 sec

Gurobi 11.0.1 (win64) logging started Tue Jun 11 22:01:09 2024

Set parameter LogFile to value "mf_gurobi.log"
Set parameter DisplayInterval to value 1
Set parameter FeasibilityTol to value 1e-09
Set parameter OptimalityTol to value 1e-09
